(declare-fun v5 () (_ BitVec 12))
(assert
(let (($e20 (_ bv0 10)))
(let (($e81 (concat $e20 true)))
(let (($e161 ((_ extract 10 0) v5)))
(let (($e162      (bvult $e161 $e81 )         ))
(let (($e170 (concat $e20 $e162)))
(let (($e171 (bvand $e81  $e170)))
(let (($e586 (ite        $e162  $e171 $e170)))
(let (($e587 ((_ extract 9 0) $e586)))
(let (($e590 ((_ extract 9 0) v5   )))
                  (bvult $e590 $e587)
                                                                                                                                                                                                                                                                                                                                                                                                                                                                                                                                                                                                                                                                                                                                                                                                                                                                                                                                                                                                                                                                                                                                                                                                                                                                                                                                                                                                                                                                                                                                                                                                                                                                                                                                                                                                                                                                                                                                                                                                                                                                                                                                                                                                                                                                                                                                                                                                    )  ))                                                                                                                                                                                                                                                                                                                                                                                                                              ))       ))                                                                               )                                    )                   )
